(set-logic QF_UF)
(declare-fun A0 () Bool)
(declare-fun A1 () Bool)
(declare-fun A2 () Bool)
(declare-fun A3 () Bool)
(declare-fun A4 () Bool)
(declare-fun A5 () Bool)
(declare-fun A6 () Bool)
(declare-fun A7 () Bool)
(declare-fun A8 () Bool)
(declare-fun A9 () Bool)
(declare-fun A10 () Bool)
(declare-fun A11 () Bool)
(declare-fun A12 () Bool)
(declare-fun A13 () Bool)
(declare-fun A14 () Bool)
(declare-fun A15 () Bool)
(declare-fun A16 () Bool)
(declare-fun A18 () Bool)
(declare-fun A19 () Bool)
(declare-fun A20 () Bool)
(declare-fun A23 () Bool)
(declare-fun A24 () Bool)
(declare-fun A25 () Bool)
(declare-fun A26 () Bool)
(declare-fun A27 () Bool)
(declare-fun A28 () Bool)
(declare-fun A29 () Bool)
(assert (let ((.def_0 (or A13 A0))) (let ((.def_1 (not A11))) (let ((.def_2 (not A13))) (let ((.def_3 (and .def_2 .def_1))) (let ((.def_4 (and .def_3 .def_0))) (let ((.def_5 (not .def_4))) (let ((.def_6 (not A3))) (let ((.def_7 (= .def_6 A0))) (let ((.def_8 (not .def_7))) (let ((.def_9 (not A5))) (let ((.def_10 (not A16))) (let ((.def_11 (or .def_10 .def_9))) (let ((.def_12 (and .def_11 .def_8))) (let ((.def_13 (not .def_12))) (let ((.def_14 (or .def_13 .def_5))) (let ((.def_15 (not .def_14))) (let ((.def_16 (not A23))) (let ((.def_17 (and A12 .def_16))) (let ((.def_18 (not A20))) (let ((.def_19 (and A20 .def_18))) (let ((.def_20 (not .def_19))) (let ((.def_21 (= .def_20 .def_17))) (let ((.def_22 (not .def_21))) (let ((.def_23 (not A24))) (let ((.def_24 (and .def_2 .def_23))) (let ((.def_25 (not .def_24))) (let ((.def_26 (not A9))) (let ((.def_27 (and A8 .def_26))) (let ((.def_28 (not .def_27))) (let ((.def_29 (= .def_28 .def_25))) (let ((.def_30 (or .def_29 .def_22))) (let ((.def_31 (not .def_30))) (let ((.def_32 (and .def_31 .def_15))) (let ((.def_33 (not A26))) (let ((.def_34 (not A2))) (let ((.def_35 (and .def_34 .def_33))) (let ((.def_36 (not .def_35))) (let ((.def_37 (and .def_10 A26))) (let ((.def_38 (not .def_37))) (let ((.def_39 (or .def_38 .def_36))) (let ((.def_40 (not .def_39))) (let ((.def_41 (not A6))) (let ((.def_42 (and A26 .def_41))) (let ((.def_43 (not .def_42))) (let ((.def_44 (or .def_1 A18))) (let ((.def_45 (and .def_44 .def_43))) (let ((.def_46 (not .def_45))) (let ((.def_47 (or .def_46 .def_40))) (let ((.def_48 (and A18 A5))) (let ((.def_49 (not A28))) (let ((.def_50 (or A4 .def_49))) (let ((.def_51 (or .def_50 .def_48))) (let ((.def_52 (or .def_16 A28))) (let ((.def_53 (not A1))) (let ((.def_54 (and .def_53 A8))) (let ((.def_55 (not .def_54))) (let ((.def_56 (or .def_55 .def_52))) (let ((.def_57 (not .def_56))) (let ((.def_58 (or .def_57 .def_51))) (let ((.def_59 (and .def_58 .def_47))) (let ((.def_60 (not .def_59))) (let ((.def_61 (and .def_60 .def_32))) (let ((.def_62 (not .def_61))) (let ((.def_63 (not A8))) (let ((.def_64 (and A29 .def_63))) (let ((.def_65 (not .def_64))) (let ((.def_66 (= .def_53 A10))) (let ((.def_67 (not .def_66))) (let ((.def_68 (or .def_67 .def_65))) (let ((.def_69 (not A7))) (let ((.def_70 (and .def_26 .def_69))) (let ((.def_71 (not .def_70))) (let ((.def_72 (or .def_34 A20))) (let ((.def_73 (not .def_72))) (let ((.def_74 (and .def_73 .def_71))) (let ((.def_75 (or .def_74 .def_68))) (let ((.def_76 (or A26 A23))) (let ((.def_77 (not .def_76))) (let ((.def_78 (not A0))) (let ((.def_79 (not A27))) (let ((.def_80 (and .def_79 .def_78))) (let ((.def_81 (and .def_80 .def_77))) (let ((.def_82 (not .def_81))) (let ((.def_83 (and A23 .def_49))) (let ((.def_84 (not A18))) (let ((.def_85 (and .def_84 A23))) (let ((.def_86 (and .def_85 .def_83))) (let ((.def_87 (not .def_86))) (let ((.def_88 (or .def_87 .def_82))) (let ((.def_89 (not .def_88))) (let ((.def_90 (= .def_89 .def_75))) (let ((.def_91 (and A15 A14))) (let ((.def_92 (and A26 A19))) (let ((.def_93 (and .def_92 .def_91))) (let ((.def_94 (not A10))) (let ((.def_95 (or A4 .def_94))) (let ((.def_96 (and .def_18 A1))) (let ((.def_97 (and .def_96 .def_95))) (let ((.def_98 (or .def_97 .def_93))) (let ((.def_99 (not A25))) (let ((.def_100 (or .def_99 A28))) (let ((.def_101 (not .def_100))) (let ((.def_102 (= A27 A26))) (let ((.def_103 (and .def_102 .def_101))) (let ((.def_104 (not .def_103))) (let ((.def_105 (or .def_99 .def_69))) (let ((.def_106 (= .def_16 A2))) (let ((.def_107 (not .def_106))) (let ((.def_108 (or .def_107 .def_105))) (let ((.def_109 (and .def_108 .def_104))) (let ((.def_110 (and .def_109 .def_98))) (let ((.def_111 (= .def_110 .def_90))) (let ((.def_112 (not .def_111))) (let ((.def_113 (and .def_112 .def_62))) .def_113)))))))))))))))))))))))))))))))))))))))))))))))))))))))))))))))))))))))))))))))))))))))))))))))))))))))))))))))))))
(check-sat)
